25	3
5	7	9	
0	0	0	0	23	2	3	4	5	6	7	8	9	10	11	12	13	14	15	16	17	18	19	20	21	22	23	24	
313	2	1	3	4	17	20	4	3	
111	4	1	3	3	4	8	5	
6	3	1	3	4	9	5	21	11	
4	1	1	3	3	10	18	16	
6	3	1	3	1	9	
3	3	1	2	1	9	
100	2	2	1	2	18	22	
283	2	2	3	3	14	21	20	
5	2	1	2	3	14	18	15	
2	2	1	2	1	17	
261	1	1	3	2	14	13	
115	3	2	2	3	15	23	16	
283	3	1	1	2	21	15	
5	3	1	1	1	25	
299	4	1	3	2	19	21	
3	1	2	1	1	19	
299	5	2	3	1	22	
277	2	1	2	1	25	
3	4	2	2	1	22	
1	5	2	3	1	25	
4	2	1	2	1	25	
3	5	1	3	1	25	
4	1	1	2	1	25	
0	0	0	0	0	